ACTORES = {Actor0, Actor1, Actor2, Actor3, Actor4};
Escenas =[|0,1,1,0,1,1,0,0,12
		  |1,0,1,0,1,0,0,0,20
		  |0,0,0,0,0,0,0,1,15
		  |1,1,1,0,0,0,1,0,3
		  |1,0,0,0,0,0,0,1,20
		  |];
Duracion=[1, 3, 2, 2, 4, 2, 4, 3];